c nIsolatedPIs 0
c maxPI 32
p cnf 160 385
c gate 33 -7 -23 0
-7 -33 0
-23 -33 0
7 23 33 0
c gate 34 -2 -18 0
-2 -34 0
-18 -34 0
2 18 34 0
c gate 35 1 17 0
1 -35 0
17 -35 0
-1 -17 35 0
c gate 36 -34 35 0
-34 -36 0
35 -36 0
34 -35 36 0
c gate 37 3 19 0
3 -37 0
19 -37 0
-3 -19 37 0
c gate 38 2 18 0
2 -38 0
18 -38 0
-2 -18 38 0
c gate 39 -37 -38 0
-37 -39 0
-38 -39 0
37 38 39 0
c gate 40 -36 39 0
-36 -40 0
39 -40 0
36 -39 40 0
c gate 41 -4 -20 0
-4 -41 0
-20 -41 0
4 20 41 0
c gate 42 -3 -19 0
-3 -42 0
-19 -42 0
3 19 42 0
c gate 43 -41 -42 0
-41 -43 0
-42 -43 0
41 42 43 0
c gate 44 -40 43 0
-40 -44 0
43 -44 0
40 -43 44 0
c gate 45 5 21 0
5 -45 0
21 -45 0
-5 -21 45 0
c gate 46 4 20 0
4 -46 0
20 -46 0
-4 -20 46 0
c gate 47 -45 -46 0
-45 -47 0
-46 -47 0
45 46 47 0
c gate 48 -44 47 0
-44 -48 0
47 -48 0
44 -47 48 0
c gate 49 -6 -22 0
-6 -49 0
-22 -49 0
6 22 49 0
c gate 50 -5 -21 0
-5 -50 0
-21 -50 0
5 21 50 0
c gate 51 -49 -50 0
-49 -51 0
-50 -51 0
49 50 51 0
c gate 52 -48 51 0
-48 -52 0
51 -52 0
48 -51 52 0
c gate 53 6 22 0
6 -53 0
22 -53 0
-6 -22 53 0
c gate 54 7 23 0
7 -54 0
23 -54 0
-7 -23 54 0
c gate 55 -53 -54 0
-53 -55 0
-54 -55 0
53 54 55 0
c gate 56 -52 55 0
-52 -56 0
55 -56 0
52 -55 56 0
c gate 57 -33 56 0
-33 -57 0
56 -57 0
33 -56 57 0
c gate 58 -9 -25 0
-9 -58 0
-25 -58 0
9 25 58 0
c gate 59 9 25 0
9 -59 0
25 -59 0
-9 -25 59 0
c gate 60 -58 -59 0
-58 -60 0
-59 -60 0
58 59 60 0
c gate 61 -1 17 0
-1 -61 0
17 -61 0
1 -17 61 0
c gate 62 18 61 0
18 -62 0
61 -62 0
-18 -61 62 0
c gate 63 2 -62 0
2 -63 0
-62 -63 0
-2 62 63 0
c gate 64 -18 -61 0
-18 -64 0
-61 -64 0
18 61 64 0
c gate 65 3 -19 0
3 -65 0
-19 -65 0
-3 19 65 0
c gate 66 -64 -65 0
-64 -66 0
-65 -66 0
64 65 66 0
c gate 67 -63 66 0
-63 -67 0
66 -67 0
63 -66 67 0
c gate 68 -4 20 0
-4 -68 0
20 -68 0
4 -20 68 0
c gate 69 -3 19 0
-3 -69 0
19 -69 0
3 -19 69 0
c gate 70 -68 -69 0
-68 -70 0
-69 -70 0
68 69 70 0
c gate 71 -67 70 0
-67 -71 0
70 -71 0
67 -70 71 0
c gate 72 4 -20 0
4 -72 0
-20 -72 0
-4 20 72 0
c gate 73 5 -21 0
5 -73 0
-21 -73 0
-5 21 73 0
c gate 74 -72 -73 0
-72 -74 0
-73 -74 0
72 73 74 0
c gate 75 -71 74 0
-71 -75 0
74 -75 0
71 -74 75 0
c gate 76 -6 22 0
-6 -76 0
22 -76 0
6 -22 76 0
c gate 77 -5 21 0
-5 -77 0
21 -77 0
5 -21 77 0
c gate 78 -76 -77 0
-76 -78 0
-77 -78 0
76 77 78 0
c gate 79 -75 78 0
-75 -79 0
78 -79 0
75 -78 79 0
c gate 80 7 -23 0
7 -80 0
-23 -80 0
-7 23 80 0
c gate 81 6 -22 0
6 -81 0
-22 -81 0
-6 22 81 0
c gate 82 -80 -81 0
-80 -82 0
-81 -82 0
80 81 82 0
c gate 83 -79 82 0
-79 -83 0
82 -83 0
79 -82 83 0
c gate 84 -8 -24 0
-8 -84 0
-24 -84 0
8 24 84 0
c gate 85 8 24 0
8 -85 0
24 -85 0
-8 -24 85 0
c gate 86 -84 -85 0
-84 -86 0
-85 -86 0
84 85 86 0
c gate 87 -7 23 0
-7 -87 0
23 -87 0
7 -23 87 0
c gate 88 -86 -87 0
-86 -88 0
-87 -88 0
86 87 88 0
c gate 89 -83 88 0
-83 -89 0
88 -89 0
83 -88 89 0
c gate 90 -60 89 0
-60 -90 0
89 -90 0
60 -89 90 0
c gate 91 10 26 0
10 -91 0
26 -91 0
-10 -26 91 0
c gate 92 -10 -26 0
-10 -92 0
-26 -92 0
10 26 92 0
c gate 93 -91 -92 0
-91 -93 0
-92 -93 0
91 92 93 0
c gate 94 90 -93 0
90 -94 0
-93 -94 0
-90 93 94 0
c gate 95 11 27 0
11 -95 0
27 -95 0
-11 -27 95 0
c gate 96 -33 -84 0
-33 -96 0
-84 -96 0
33 84 96 0
c gate 97 -59 -85 0
-59 -97 0
-85 -97 0
59 85 97 0
c gate 98 -96 97 0
-96 -98 0
97 -98 0
96 -97 98 0
c gate 99 -58 93 0
-58 -99 0
93 -99 0
58 -93 99 0
c gate 100 -98 99 0
-98 -100 0
99 -100 0
98 -99 100 0
c gate 101 -91 -100 0
-91 -101 0
-100 -101 0
91 100 101 0
c gate 102 97 100 0
97 -102 0
100 -102 0
-97 -100 102 0
c gate 103 56 102 0
56 -103 0
102 -103 0
-56 -102 103 0
c gate 104 -92 -103 0
-92 -104 0
-103 -104 0
92 103 104 0
c gate 105 -101 104 0
-101 -105 0
104 -105 0
101 -104 105 0
c gate 106 -95 -105 0
-95 -106 0
-105 -106 0
95 105 106 0
c gate 107 -11 -27 0
-11 -107 0
-27 -107 0
11 27 107 0
c gate 108 -12 -28 0
-12 -108 0
-28 -108 0
12 28 108 0
c gate 109 12 28 0
12 -109 0
28 -109 0
-12 -28 109 0
c gate 110 -108 -109 0
-108 -110 0
-109 -110 0
108 109 110 0
c gate 111 -107 110 0
-107 -111 0
110 -111 0
107 -110 111 0
c gate 112 -106 111 0
-106 -112 0
111 -112 0
106 -111 112 0
c gate 113 -13 -29 0
-13 -113 0
-29 -113 0
13 29 113 0
c gate 114 13 29 0
13 -114 0
29 -114 0
-13 -29 114 0
c gate 115 -113 -114 0
-113 -115 0
-114 -115 0
113 114 115 0
c gate 116 112 115 0
112 -116 0
115 -116 0
-112 -115 116 0
c gate 117 -16 -32 0
-16 -117 0
-32 -117 0
16 32 117 0
c gate 118 16 32 0
16 -118 0
32 -118 0
-16 -32 118 0
c gate 119 -117 -118 0
-117 -119 0
-118 -119 0
117 118 119 0
c gate 120 -14 -30 0
-14 -120 0
-30 -120 0
14 30 120 0
c gate 121 14 30 0
14 -121 0
30 -121 0
-14 -30 121 0
c gate 122 -120 -121 0
-120 -122 0
-121 -122 0
120 121 122 0
c gate 123 15 -31 0
15 -123 0
-31 -123 0
-15 31 123 0
c gate 124 -15 31 0
-15 -124 0
31 -124 0
15 -31 124 0
c gate 125 -123 -124 0
-123 -125 0
-124 -125 0
123 124 125 0
c gate 126 122 -125 0
122 -126 0
-125 -126 0
-122 125 126 0
c gate 127 119 126 0
119 -127 0
126 -127 0
-119 -126 127 0
c gate 128 116 -127 0
116 -128 0
-127 -128 0
-116 127 128 0
c gate 129 112 -115 0
112 -129 0
-115 -129 0
-112 115 129 0
c gate 130 -101 111 0
-101 -130 0
111 -130 0
101 -111 130 0
c gate 131 106 130 0
106 -131 0
130 -131 0
-106 -130 131 0
c gate 132 -129 -131 0
-129 -132 0
-131 -132 0
129 131 132 0
c gate 133 -128 132 0
-128 -133 0
132 -133 0
128 -132 133 0
c gate 134 -86 -112 0
-86 -134 0
-112 -134 0
86 112 134 0
c gate 135 -57 -112 0
-57 -135 0
-112 -135 0
57 112 135 0
c gate 136 -134 -135 0
-134 -136 0
-135 -136 0
134 135 136 0
c gate 137 -133 136 0
-133 -137 0
136 -137 0
133 -136 137 0
c gate 138 -89 -137 0
-89 -138 0
-137 -138 0
89 137 138 0
c gate 139 -94 -138 0
-94 -139 0
-138 -139 0
94 138 139 0
c gate 140 -95 -107 0
-95 -140 0
-107 -140 0
95 107 140 0
c gate 141 94 140 0
94 -141 0
140 -141 0
-94 -140 141 0
c gate 142 -139 -141 0
-139 -142 0
-141 -142 0
139 141 142 0
c gate 143 -10 26 0
-10 -143 0
26 -143 0
10 -26 143 0
c gate 144 8 -24 0
8 -144 0
-24 -144 0
-8 24 144 0
c gate 145 -60 144 0
-60 -145 0
144 -145 0
60 -144 145 0
c gate 146 9 -25 0
9 -146 0
-25 -146 0
-9 25 146 0
c gate 147 -145 -146 0
-145 -147 0
-146 -147 0
145 146 147 0
c gate 148 -90 147 0
-90 -148 0
147 -148 0
90 -147 148 0
c gate 149 -143 -148 0
-143 -149 0
-148 -149 0
143 148 149 0
c gate 150 10 -26 0
10 -150 0
-26 -150 0
-10 26 150 0
c gate 151 -140 -150 0
-140 -151 0
-150 -151 0
140 150 151 0
c gate 152 -149 151 0
-149 -152 0
151 -152 0
149 -151 152 0
c gate 153 -142 -152 0
-142 -153 0
-152 -153 0
142 152 153 0
c gate 154 -110 -115 0
-110 -154 0
-115 -154 0
110 115 154 0
c gate 155 -122 125 0
-122 -155 0
125 -155 0
122 -125 155 0
c gate 156 -119 155 0
-119 -156 0
155 -156 0
119 -155 156 0
c gate 157 154 156 0
154 -157 0
156 -157 0
-154 -156 157 0
c gate 158 152 157 0
152 -158 0
157 -158 0
-152 -157 158 0
c gate 159 -153 -158 0
-153 -159 0
-158 -159 0
153 158 159 0
c gate 160 57 -159 0
57 -160 0
-159 -160 0
-57 159 160 0
c PO
160 0
